min: 12 x_AB + 8 x_AC + 13 x_AD + 12 x_AE + 12 x_BA + 13 x_BC + 4 x_BD + 8 x_BE + 8 x_CA + 13 x_CB + 11 x_CD + 20 x_CE + 13 x_DA + 4 x_DB + 11 x_DC + 12 x_DE + 12 x_EA + 8 x_EB + 20 x_EC + 12 x_ED;
c_A: x_AB + x_AC + x_AD + x_AE >= 1;
c_B: x_BA + x_BC + x_BD + x_BE >= 1;
c_C: x_CA + x_CB + x_CD + x_CE >= 1;
c_D: x_DA + x_DB + x_DC + x_DE >= 1;
c_E: x_EA + x_EB + x_EC + x_ED >= 1;
bin x_AB x_AC x_AD x_AE x_BA x_BC x_BD x_BE x_CA x_CB x_CD x_CE x_DA x_DB x_DC x_DE x_EA x_EB x_EC x_ED;
